case-id     Autest
tx          bearings
tx-data     NAA240
ionosphere  lwpm day
range-max   11000
receivers  32.6082  85.4799
lwf-vs-dist 20000
MC-OPTIONS  FULL-WAVE 0 TRUE
LWFLDS
print-mds   0                                                                                                           
print-wf    2                                                                                                           
print-lwf   2                                                                                                           
print-swg   2                                                                                                           
print-mc    1  
start
quit